isbn_13,title,authors,publisher,publishedDate
9781447218296,Mice,Gordon Reece,Pan Macmillan,2012/02/02
9780822208389,Of Mice and Men,John Steinbeck,Dramatists Play Service Inc,1964
9780399549199,Seven Blind Mice,Ed Young,Penguin,2012/03/13
9780764118128,Mice,Sharon Lynn Vanderlip,BarronS Educational Series,2001
9788184974560,A Tasty Feast for the Mice,Tagore Ravindernath,Bpi Publishing,2014
9780674631113,Of Flies Mice and Men,Francois Jacob,Harvard University Press,1998
9780141389103,Martins Mice,Dick King Smith,Penguin Uk,2017/07/06
9781350035959,The Homeric Battle of the Frogs and Mice,Erik Robinson Joel P Christensen,Bloomsbury Publishing,2018/02/08
9781442456860,Mice,Rose Fyleman,Simon And Schuster,2012/10/16
9780141185101,Of Mice and Men,John Steinbeck,Penguin Uk,2000/09/07
9780738665474,Of Mice and Men MAXNotes Literature Guides,Lena T Shamblin,Research Education Assoc,2012/04/27
9780313330568,John Steinbecks Of Mice and Men,Barbara A Heavilin,Praeger Pub Text,2005/01/01
9781410336330,A Study Guide for John Steinbecks Of Mice and Men,Gale Cengage Learning,Gale Cengage Learning ,2015/09/15
9781609339043,Of Mice and Men,None,Bmi Educational Services,2011/03
9781101615218,Of Mice and Men Teachers Deluxe Edition,John Steinbeck,Penguin,2013/01/03
9781438139975,John Steinbecks Of Mice and Men,Harold Bloom,Infobase Learning,2013
9781493860869,Of Mice and Men Close Reading and TextDependent Questions,Kristen Kemp,Teacher Created Materials,2015/06/26
9780142000656,East of Eden,John Steinbeck,Penguin,2002
9780241960110,A View from the Bridge,Arthur Miller,Penguin Uk,2011/10/06
9781474225588,A View from the Bridge,Arthur Miller,Bloomsbury Publishing,2015/02/13
9780582506244,A View from the Bridge Arthur Miller,Shay Daly,Pearson York Notes,2002
9780521768740,The Cambridge Companion to Arthur Miller,C W E Bigsby,Cambridge University Press,2010/04/22
9781920693596,A View from the Bridge,Scott Hurley,Insight Publications,2004
9780008228323,Zenith,Lindsay Cummings Sasha Alsberg,Harpercollins Uk,2018/01/11
9781444920451,River of Ink 2 Zenith,Helen Dennis,Hachette ChildrenS,2017/05/09
9780415262903,Welfare and the State The zenith of Western welfare state systems,Bob Matthews Catherine Jones Finer Nicholas Deakin,Taylor Francis,2004
9781488026034,Zenith,Lindsay Cummings Sasha Alsberg,Harlequin,2018/02/01
9781101583821,The Zenith,Duong Thu Huong,Penguin,2012/08/16
9781799031697,Warrior Daytimer Pocket 365 Quotes from Ancient Wisdom,Zenith Books,Independently Published,2019/03/07
9788862080699,Zenith Ediz Inglese,Manfred Rossler,Damiani Editore,2009
9780801471810,Imperial Japan at Its Zenith,Kenneth J Ruoff,Cornell University Press,2014/09/18
9780330462136,Zenith,Julie Bertagna,Pan Macmillan,2008/09/04
9781781106945,Harry Potter and the Cursed Child Parts One and Two Special Rehearsal Edition,JK Rowling Jack Thorne John Tiffany,Pottermore Publishing,2016/07/31
9781781105757,Fantastic Beasts and Where to Find Them,JK Rowling Newt Scamander,Pottermore Publishing,2017/03/14
9781911641926,Harry Potter Knitting Magic,Tanis Gray,Pavilion,2020/01/28
9780563533375,Harry Potter and the Philosophers Stone,J K Rowling,None,2001/11
9781781106464,Harry Potter The Complete Collection 17,JK Rowling,Pottermore Publishing,2015/12/14
9781781100226,Harry Potter and the Chamber of Secrets,JK Rowling,Pottermore Publishing,2015/12/08
9781476635521,The Harry Potter Generation,Balaka Basu Emily Lauer,Mcfarland,2019/03/20
9781781109502,Harry Potter A Journey Through A History of Magic,British Library,Pottermore Publishing,2017/10/20
9780715141069,Mixing it Up With Harry Potter,Owen Smith,Church House Publishing,2007
9780826215499,The Ivory Tower and Harry Potter,Lana A Whited,University Of Missouri Press,2004
9781444003147,Horrid Henry,Francesca Simon,Hachette Uk,2010/11/04
9781444008555,Nightmare,Francesca Simon,Hachette Uk,2013/06/06
9780955679308,The Horrid Little Fly,Liz Procter,LuluCom,2007/12/01
9781402256752,Horrid Henry Rocks,Francesca Simon,Sourcebooks Inc,2011/04/01
9781317776338,Reading Comics,Mila Bongco,Routledge,2014/04/04
9780878057580,The Art of the Comic Book,Robert C Harvey,Univ Press Of Mississippi,1996/01/01
9780878054060,Comic Books as History,Joseph Witek,Univ Press Of Mississippi,1989
9780801874505,Comic Book Nation,Bradford W Wright,Jhu Press,2003/09/18
9781444358292,Comic Relief,John Morreall,John Wiley Sons,2011/08/24
9781920845483,Comic Commentators,Haydon R Manning,Network Books,2008
9780439043830,ComicStrip Math,Dan Greenberg,Scholastic,2000
9781893905429,Comic Book Artist Collection,Jon B Cooke Paul Gulacy Steve Rude,Twomorrows Publishing,2005/04
9781885477224,Comic Strip Conversations,Carol Gray,Future Horizons,1994
9780878054992,The Comics,Coulton Waugh,Univ Press Of Mississippi,1991
9780857284495,Horror and the Horror Film,Bruce F Kawin,Anthem Press,2012
9780813533636,The Horror Film,Charles Affron Robert Lyons Stephen Prince,Rutgers University Press,2004
9780415235624,Horror the Film Reader,Mark Jancovich,Psychology Press,2002
9781594741791,How to Survive a Horror Movie,Seth Grahame Smith,Quirk Books,2007
9780470672600,A Companion to the Horror Film,Harry M Benshoff,John Wiley Sons,2014/10/06
9781903364000,The Horror Genre,Kate Domaille Paul Wells,Wallflower Press,2000
9780786484805,Horror Films of the 1990s,John Kenneth Muir,Mcfarland,2011/10/06
9780813550398,A History of Horror,Wheeler Winston Dixon,Rutgers University Press,2010/08/24
9780203882184,Horror,Brigid Cherry,Routledge,2009/02/09
9780810850132,Planks of Reason,Barry Keith Grant Christopher Sharrett,Scarecrow Press,2004
9781786032720,The Lost Book of Adventure,Teddy Keen,Frances Lincoln ChildrenS Books,2019/03/05
9781906838560,The Moomin Adventure Book,Cally Law Tove Jansson,Selfmadehero,2012
9780415892902,Adventure Therapy,Keith C Russell Lee Gillis Michael A Gass,Routledge,2012
9781845931230,Adventure Tourism,R Buckley,Cabi,2006/10/24
9780822332879,Pikachus Global Adventure,Alberto Acereda Joseph Tobin Will Derusha,Duke University Press,2004/02/05
9781423623823,Ohio Adventure,None,Gibbs Smith,None
9780226098678,Adventure Mystery and Romance,John G Cawelti,University Of Chicago Press,1977/07/15
9781849944847,Rainy Day Kids Adventure Book,Katie Akers Steph Scott,Pavilion Books,2018/02/15
9780810160651,Brazilian Adventure,Peter Fleming,Northwestern University Press,1999
9780871699237,An Adventure of Great Dimension,Erica Reiner,American Philosophical Society,2002
9780253347138,The Erotic Thriller in Contemporary Cinema,Linda Ruth Williams,Indiana University Press,2005
9781439177747,I Am Pilgrim,Terry Hayes,Simon And Schuster,2014/05/27
9781466872240,The Coming Storm,Mark Alpert,St MartinS Press,2019/01/08
9780765398161,They All Fall Down,Rachel Howzell Hall,Forge Books,2019/04/09
9780987055309,Pentecost,Joanna Penn,The Creative Penn,2011
9781476798646,A Single Light,Tosca Lee,Howard Books,2019/09/17
9781416543831,The Last Patriot,Brad Thor,Simon And Schuster,2008/07/01
9780415212601,Romance,Barbara Fuchs,Psychology Press,2004
9780415164177,The Romance Languages,Martin Harris Nigel Vincent,Taylor Francis,1997
9780812215229,A Natural History of the Romance Novel,Pamela Regis,University Of Pennsylvania Press,2007/04/26
9780815315117,The Romance of Arthur,James J Wilhelm,Psychology Press,1994
9781775417927,Romance,Ford Madox Ford Joseph Conrad,The Floating Press,2010/06/01
9781843842217,Magic and the Supernatural in Medieval English Romance,Corinne J Saunders,Boydell Brewer,2010
9780838910450,Young Adult Literature,Michael Cart,American Library Association,2010
9780262541787,Where the Action is,Paul Dourish,Mit Press,2004
9780521388184,On Action,Carl Ginet,Cambridge University Press,1990/03/30
9780674792913,Science in Action,Bruno Latour,Harvard University Press,1987
9780262140881,Action in Perception,Alva Noe,Mit Press,2004
9781139474399,Reasons for Action,David Sobel Steven Wall,Cambridge University Press,2009/04/27
9780807740996,Teachers Caught in the Action,Ann Lieberman Lynne Miller,Teachers College Press,2001
9781610164313,Human Action The Scholars Edition,None,Ludwig Von Mises Institute,2004
9780521542937,Gesture,Adam Kendon,Cambridge University Press,2004/09/23
9780802818164,Art in Action,Nicholas Wolterstorff,Wm B Eerdmans Publishing,1980
9780575086876,HeartShaped Box,Joe Hill,Hachette Uk,2010/06/10
9780671039738,Carrie,Stephen King,Simon And Schuster,2000/09
9781682616079,Stephen King American Master,Stephen Spignesi,Permuted Press,2018/10/30
9781848940833,The Stand,Stephen King,Hachette Uk,2008/12/11
9781982137991,If It Bleeds,Stephen King,Simon And Schuster,2020/05/05
9781982102326,Elevation,Stephen King,Scribner,2019/11/12
9781501156700,Pet Sematary,Stephen King,Simon And Schuster,2017/01/31
9781982127794,It,Stephen King,Scribner,2019/07/30
9781501143779,The Dark Half,Stephen King,Simon And Schuster,2016/06/28
9781982110567,The Institute,Stephen King,Scribner,2019/09/10
9781250048097,The Silence of the Lambs,Thomas Harris,St MartinS Griffin,2013/10/01
9781446439746,Silence Of The Lambs,Thomas Harris,Random House,2018/10/01
9781539092346,Silence of the Lambs,Frank Stone,Createspace Independent Publishing Platform,2016/09/26
9780099586579,The Silence of the Lambs,Thomas Harris,Random House,2013
9781848941328,Black Sunday,Thomas Harris,Hachette Uk,2018/12/27
9781473567856,Hannibal Rising,Thomas Harris,Random House,2018/10/01
9781448183739,Hannibal,Thomas Harris,Random House,2018/10/01
9781538750131,Cari Mora,Thomas Harris,Hachette Uk,2019/05/21
9780356043388,Mice,Jenny Vaughan,None,1973
9781425980245,Eyes on Ice No Blind Mice,Saad Shaikh M D,Authorhouse,2007/02
9781444920468,Zenith,Helen Dennis,Hachette Uk,2016/06/02
9781429971768,The Science of Star Wars,Jeanne Cavelos,St MartinS Press,2007/04/01
9780307795731,Star Wars Trilogy,George Lucas James Kahn,Del Rey,2011/06/28
9783836563406,The Star Wars Archives 19771983,Paul Duncan,None,2018
9781302457754,Star Wars Omnibus,John Wagner Michael A Stackpole Steve Perry Timothy Zahn,Marvel Entertainment,2015/01/08
9781473564596,Star Wars Resistance Reborn,Rebecca Roanhorse,Random House,2019/11/07
9781781166178,Book of Sith,Daniel Wallace,Titan Publishing Company,2013
9780439882828,Star Wars,George Lucas Matthew Reinhart,Scholastic Paperbacks,2007
9780062484246,The World According to Star Wars,Cass R Sunstein,Harpercollins,2016/05/31
9781452166797,Star Wars Women of the Galaxy,Amy Ratcliffe,Chronicle Books,2019/01/08
9780395866191,Halloween Mice,Bethany Roberts,Houghton Mifflin Harcourt,1997/08/18
9781624960703,Mice,Martha E H Rustad,Jump,2013/08/01
9780007269709,The Fellowship of the Ring,Alan Lee John Ronald Reuel Tolkien,Harpercollins Uk,2008
9780547952093,Tales from the Perilous Realm,JRR Tolkien,Houghton Mifflin Harcourt,2012/02/15
9780007269723,The Return of the King,J R R Tolkien,Harpercollins Uk,2008
9780395285237,Pictures by J R R Tolkien,John Ronald Reuel Tolkien,Houghton Mifflin Harcourt Hmh,1979
9780008131401,A Secret Vice Tolkien on Invented Languages,J R R Tolkien,Harpercollins,2016/04/07
9780618260225,The Lord of the Rings,Brian Sibley,Houghton Mifflin Harcourt,2002
9780486242132,Room and Furniture Layout Kit,Muncie Hendler,Courier Corporation,1981
9780007169702,The Maps of Tolkiens Middleearth,Brian Sibley John Howe,Harpercollins Publishers,2003
9781594535680,Reflections,Charles Lee Taylor,Bookman Publishing,2005/04/01
9780778717546,Mice,Bobbie Kalman Marc Crabtree Rebecca Sjonger,Crabtree Publishing Company,2004
9781623494360,Zenith,Chase Untermeyer,Texas AM University Press,2016/08/24
9780435375942,Zenith,Anneli McLachlan,Heinemann,2000
9781412067102,A Fantastic Cruise to the Zenith the Place of Your Dreams,Kingsley Wabara,Trafford Publishing,2005
9780143123712,The Zenith,Duong Thu Huong,Penguin Paperbacks,2013/07/30
9780643099319,Native Mice and Rats,Bill Breed Fred Ford,Csiro Publishing,2007/12/17
9780691016368,Making Mice,Karen Rader,Princeton University Press,2004/03/21
9780080491981,Of Mice Men and Microbes,Andrea S Meyer David R Harper,Elsevier,1999/06/28
9781338312911,Harry Potter,J K Rowling,Harry Potter,2018/09/25
9781859846667,The Irresistible Rise of Harry Potter,Andrew Blake,Verso,2002
9781317122111,Heroism in the Harry Potter Series,Katrin Berndt Lena Steveker,Routledge,2016/04/22
9780307766335,Three Blind Mice,Ken Auletta,Vintage,2010/10/06
9781459612853,Mice,Gordon Reece,ReadhowyouwantCom,2011/03/04
9780393974379,Java Programming,Kim N King,W W Norton Company Incorporated,2000
9782259212922,Potens,Ingrid DESJOURS,Plon,2010/08/19
9781629116235,The Power of Prophetic Prayer,Kynan Bridges,Whitaker House,2015/01/26
9780465073825,Political Animals,Rick Shenkman,Hachette Uk,2016/01/05
9780141378572,The BFG Colour Edition,Roald Dahl,Penguin Uk,2016/09/13
9789793780146,Java in a Time of Revolution,Benedict Anderson,Equinox Publishing,2005/12/01
9788131755440,The Class Of Java,Jain Pravin,Pearson Education India,2011/09/01
9780596002886,Java NIO c Ron Hitchens,Ron Hitchens,OReilly Media Inc,2002/08/27
9780080568782,TCPIP Sockets in Java,Kenneth L Calvert Michael J Donahoo,Morgan Kaufmann,2011/08/29
9781593270612,Wicked Cool Java,Brian D Eubanks,No Starch Press,2005
9780130170071,Multithreaded Programming with Java Technology,Bil Lewis Daniel J Berg,Prentice Hall Professional,2000
9780132778046,Effective Java,Joshua Bloch,Addison Wesley Professional,2008/05/08
9781565924857,Java IO,Elliotte Rusty Harold,OReilly Media Inc,1999
9780070617131,Programming With JavaA Primer 3E,Balagurusamy,Tata Mcgraw Hill Education,2006/12/01
9781423902294,Java Programs to Accompany Programming Logic and Design,Jo Ann Smith,Cengage Learning,2008/02/04
9783734039836,Hands Up,DJ Cook,Bod Books On Demand,2018/09/20
9781469112930,Dear Folks,Andrew Metal,Xlibris Corporation,2001/01/16
9780333408117,The Hare and the Tortoise And The Farm Cat and the Mice,Avril Hodgson,None,1987
9780747574514,Harry Potters School Books,J K Rowling,Bloomsbury Childrens,2004/05
9780742539594,Harry Potter and International Relations,Daniel H Nexon Iver B Neumann,Rowman Littlefield,2006
9781408855935,Harry Potter and the Order of the Phoenix,J K Rowling,Bloomsbury Publishing,2014/08/27
9781409478416,Heroism in the Harry Potter Series,Dr Katrin Berndt Dr Lena Steveker,Ashgate Publishing Ltd,2013/05/28
9781598002218,Friends and Foes of Harry Potter,Benjamin Vincent Chitra Agarwal Nikita Agarwal,Texas World Publishing,2005
9781449316648,Programming Android,G Blake Meike Laird Dornin Masumi Nakamura Zigurd Mednieks,Oreilly Media Inc,2012
9780596554637,Ajax on Rails,Scott Raymond,Oreilly Media Inc,2007/01/03
9781449341985,MapReduce Design Patterns,Adam Shook Donald Miner,Oreilly Media Inc,2012/11/21
9780596555498,Java SOA Cookbook,Eben Hewitt,Oreilly Media Inc,2009/03/17
9780596004460,MySQL Pocket Reference,George Reese,Oreilly Media Inc,2003
9781491956625,Mastering Azure Analytics,Zoiner Tejada,Oreilly Media Inc,2017/04/06
9781449379377,MySQL in a Nutshell,Russell JT Dyer,Oreilly Media Inc,2008/04/15
9780596005726,Java Servlet JSP Cookbook,Bruce Perry,Oreilly Media Inc,2004/01/21
9780596003289,Programming Jakarta Struts,Chuck Cavaness,Oreilly Media Inc,2002
9780345506986,Indiana Jones and the Army of the Dead,Steve Perry,Random House Digital Inc,2009
9780091926618,The Complete Making of Indiana Jones,J W Rinzler Laurent Bouzereau,Random House,2008
9780140902150,Young Indiana Jones and the tomb of terror,Les Martin,None,1990/12/01
9781847392145,The Lost Journal of Indiana Jones,Anthony Magnoli Henry Indiana Jones Jr Jenna Land Free Joanna Price,Pocket Books,2008
9780553819991,The Adventures of Indiana Jones,Campbell Black,Random House,2008
9780756635008,Indiana Jones,James Luceno,Dk Pub,2008
9780091926670,Indiana Jones and the Kingdom of the Crystal Skull,James Rollins,Random House,2008
9780679805786,Young Indiana Jones and the circle of death,William McCay,Random House Books For Young Readers,1990
9780553561968,Indiana Jones and the Philosophers Stone,Max McCoy,Bantam,1995
9780553561975,Indiana Jones and the Secret of the Sphinx,Max McCoy,Bantam,1999
9781781313763,Jewish Pirates of the Caribbean,Edward Kritzler,Aurum Press,2014/04/04
9780152018481,How I Became a Pirate,David Shannon Melinda Long,Houghton Mifflin Harcourt,2003
9780486131948,A General History of the Pyrates,Daniel Defoe,Courier Corporation,2012/05/11
9780807848630,Pirates Privateers Rebel Raiders of the Carolina Coast,Lindley S Butler,Unc Press Books,2000
9781447246084,The Republic of Pirates,Colin Woodard,Pan Macmillan,2014/01/16
9780486138077,Pirates,Henry Gilbert,Courier Corporation,2012/10/03
9780807095386,Villains of All Nations,Marcus Rediker,Beacon Press,2011/04/05
9781402763113,Pirates,John Reeve Carpenter,Sterling Publishing Company Inc,2008
9781442435728,The Scraps Book,Lois Ehlert,Simon And Schuster,2014/03/04
9781421549798,One Piece,Eiichiro Oda,Viz Media Llc,2012/11/06
9781974707010,One Piece,Eiichiro Oda,Viz Media Llc,2019/08/06
9781435221482,One Piece 3,Eiichiro Oda Lance Caselman,None,2007/12/15
9781439199855,Falling Apart in One Piece,Stacy Morrison,Simon And Schuster,2010/04/03
9781932897234,The One Piece Adventurer,Kazuhisa Fujie Onno vant Hot,Dh Publishing Inc,2007/05/15
9780486255040,Papercraft Projects with One Piece of Paper,Michael Grater,Courier Corporation,1987/01/01
9781118123379,One Piece of Paper,Mike Figliuolo,John Wiley Sons,2011/09/09
9781616734640,One Piece Wearables,None,None,2008
9781465328007,The Sky in One Piece,Hannah Podob,Xlibris Corporation,2004/02/19
9781435221475,One Piece 2,Eiichiro Oda Lance Caselman,None,2007/12/15
9780547769998,Jumanji,Chris Van Allsburg,Houghton Mifflin Harcourt,2018/11/06
9780590906104,Jumanji,A L Singer,None,1995
9780618253968,Zathura,None,Houghton Mifflin Harcourt,2002
9781557348173,A Guide for Using Jumanji in the Classroom,Lynn Didominicis,Teacher Created Resources,1995/11/01
9781405869508,Jumanji,John Escott Todd Strasser,Penguin Longman,2008
9780547548104,The Chronicles of Harris Burdick,Chris Van Allsburg,Houghton Mifflin Harcourt,2011
9781481486965,The Gauntlet,Karuna Riazi,Simon And Schuster,2017/03/28
9780395278048,The Garden of Abdul Gasazi,Chris Van Allsburg,Houghton Mifflin Harcourt,1979
9780582416635,Jumanji,John Escott Todd Strasser,Longman,1999
9780995753587,The Emotionally Intelligent Office,The School of Life,School Of Life,2018/09
9780435975388,Heinemann Office Procedures for CXC,Alan Whitcomb Gill Clarke,Heinemann,2000
9780070655706,Hotel Front Office Trng Mnl 2E,Sudhir Andrews,Tata Mcgraw Hill Education,2009
9781401813987,Medical Office Practice,Diane R Miller Phillip S Atkinson,Cengage Learning,2003
9780471389231,Building Type Basics for Office Buildings,A Eugene Kohn Leslie E Robertson Paul Katz,John Wiley Sons,2002/07/29
9781853116988,The English Office Book,None,Canterbury Pressnorwich,2006
9781563273186,5S for the Office,Don Tapping Thomas Fabrizio,Productivity Press,2006/07/21
9781590314814,The Complete Guide to Designing Your Law Office,Jon S Schultz Suzette S Schultz,American Bar Association,2005
9788189093679,Principles of Office Management,Dr RC Bhatia,Lotus Press,2005
9781420028942,The Strategic Project Office,J Kent Crawford,Crc Press,2001/11/05
9780141923475,Of Mice and Men,John Steinbeck,Penguin Uk,2000/09/07
9780743445412,Mice,None,Ibooks,2003/01
9781869556921,Mice,Beverley Randell Clive Harper,Nelson Thornes,1996
9781869556877,Guinea Pigs,Beverley Randell Clive Harper,Nelson Thornes,1996
9781869556891,Goldfish,Beverley Randell Clive Harper,Nelson Thornes,1996
9781869556914,Dogs,Beverley Randell Clive Harper,Nelson Thornes,1996
9780763519773,Cats,Beverley Randell Clive Harper,Rigby,1997/10/17
9781869555467,The Lazy Pig,Beverley Randell,Nelson Thornes,1993
9781869610791,The Busy Beavers,Beverley Randell,Nelson Thornes,1997
9781869611033,Lions and Tigers,Beverley Randell,Nelson Thornes,1997/07
9780763573966,Rigby PM Plus Orange Student Reader Level 16 Mice Have a Mtg,Rigby,Pms,2000/08
9780763574277,Puppy at the Door,Various,Rigby Education,2000/10
9781606891124,Mice,Elaine Pascoe,Creative Teaching Press,2009/10/01
9780985920425,Harry I Was,Patriots Point Education Department,None,2014/02
9781841658247,Harry Meghan The Royal Wedding Book,Halima Sadat,Pavilion Books,2018/05/28
9780313320675,Reading Harry Potter,Giselle Liza Anatol,Greenwood Publishing Group,2003
9780889652019,Harry Potter and the Bible,Richard Abanes,Wingspread Pub,2001/01/01
9780458996209,My story,Liane Heller Tommy Hunter,None,1985
9781843628552,Harrys Home,Catherine Anholt Laurence Anholt,Franklin Watts,2005/08/25
9781875498758,Harry Seidler,Harry Seidler Stephen Dobney,Images Publishing,1997
9781681982755,The Flash Book,Scott Kelby,Rocky Nook Inc,2017/11/04
9781893905986,The Flash Companion,Keith Dallas,Twomorrows Publishing,2008
9780955282935,The Flash,Peter Wild,None,2007/01/01
9780735712836,The Flash MX Project,Cheryl Brumbaugh Duncan,New Riders,2002
9781401299576,The Flash Savage Velocity,Mike Baron,None,2020/03/31
9780957921870,The Flash Anthology,Steven Grosvenor,Sitepoint Pty Ltd,2004
9780822329398,The Flash of Capital,Eric Cazdyn,Duke University Press,2002/11/04
9781476674445,The Ages of The Flash,Joseph J Darowski,Mcfarland,2019/04/30
9780132704823,The Flash Animator,Sandro Corsaro,New Riders,2002/06/11
9781136108389,The Flash Photography Field Guide,Adam Duckworth,Crc Press,2014/03/26
9781101517710,Mice,Gordon Reece,Penguin,2011/08/18
9781598842012,Pirates of the Americas,David Marley,Abc Clio,2010
9780547951973,The Hobbit,JRR Tolkien,Houghton Mifflin Harcourt,2012/02/15
9780007425389,The Hobbit Enhanced Edition,J R R Tolkien,Harpercollins Uk,2011/11/18
9780547739465,Exploring JRR Tolkiens The Hobbit,Corey Olsen,Houghton Mifflin Harcourt,2012
9780261102217,The Hobbit Or There and Back Again,John Ronald Reuel Tolkien,Harpercollins Uk,1999
9780547898568,The Hobbit,Jude Fisher,Houghton Mifflin Harcourt,2012
9781414305967,Finding God in the Hobbit,Jim Ware,Tyndale House Publishers Inc,2006
9780007487356,The Hobbit,John Ronald Reuel Tolkien Paddy Kempshall,Harpercollins Uk,2012
9781426759864,The Christian World of The Hobbit,Devin Brown,Abingdon Press,2012/10/01
9781137373649,The Riddles of The Hobbit,Adam Roberts,Palgrave Macmillan,2013/11
9780805788068,The Hobbit,William Howard Green,Twayne Pub,1995
9781631580574,Blue Gemini,Mike Jenne,Simon And Schuster,2015/05/05
9781631580727,Blue Darker Than Black,Mike Jenne,Simon And Schuster,2016/01/12
9781471913259,A Serpents Tooth,Craig Johnson,Hachette Uk,2014/03/14
9781936891092,A Nasty Bit of Rough,David Feherty,Black Irish Entertainment Llc,2002/03/12
9780297855767,The Spies Of Warsaw,Alan Furst,Hachette Uk,2011/08/25
9780140011135,Flying Colours,C S Forester,Penguin Uk,2006/10/05
9781538759844,The Drowned Girl previously published as Only One Life,Sara Blaedel,Hachette Uk,2018/12/24
9781250089052,Karolinas Twins,Ronald H Balson,St Martins Griffin,2016/09/06
9781466828797,Metaltown,Kristen Simmons,Tor Teen,2016/09/
9781945863387,Pale Blue,Mike Jenne,Talos,2019-02-05
9780516020709,Mice,Julie E Frankel,Childrens Pressct,1986
9780470398258,The Ultimate Harry Potter and Philosophy,Gregory Bassham William Irwin,John Wiley Sons,2010/09/14
9780582418011,Jaws,Kieran McGovern Peter Benchley,Longman,1999
9780449219638,Jaws,Peter Benchley,Fawcett Books,1991
9780345544148,Jaws,Peter Benchley,Ballantine Books,2013
9783540287667,Osteomyelitis of the Jaws,Gerold K Eyrich Marc Baltensperger,Springer Science Business Media,2008/11/07
9780851709291,Jaws,Antonia Quirke,Macmillan,2002/08/26
9781503613584,Jaws,Paul R Ehrlich Sandra Kahn,None,2020/03/03
9781458720009,The Jaws Log,Carl Gottlieb Peter Benchley,Readhowyouwantcom,2010/10/19
9780008235642,The Reservoir Tapes,Jon McGregor,Harpercollins Uk,2017/12/28
9781434297280,Superman,Matthew K Manning,Capstone,2015
9781401272999,Superman,Patrick Gleason Peter Tomasi,None,2017
9781400068661,Superman,Larry Tye,Random House Incorporated,2012
9781594741135,The Superman Handbook,Scott Beatty,Quirk Books,2006
9780743417143,Superman,Roger Stern,Simon And Schuster,2004
9781401209391,Superman,Jerry Siegel Joe Shuster,Dc Comics,2006
9781434215680,Superman Meteor of Doom,Paul Kupperberg,Capstone,2009/08
9780744008074,Superman Returns,Rick Barba,Bradygames,2006/07
9780735638723,Code,Charles Petzold,Microsoft Press,2000/10/11
9780893914127,Reliability in Computer System Design,B S Dhillon,Intellect Books,1987
9788190675772,Multiple Choice Questions in Computer Science,Ela Kumar,I K International Pvt Ltd,2008/01/01
9788184314663,Computer Organization and Architecture,APGodse DAGodse,Technical Publications,2008
9781576904619,Computer Activities A Z,Alyssa Weller,Teacher Created Resources,1999
9780818670947,Performance Modeling for Computer Architects,C M Krishna,John Wiley Sons,1996
9788184315639,Computer Networks,None,Technical Publications,1978
9780750694940,Computer Hardware Maintenance,Stephen Rood,Butterworth Heinemann,1996
9780877780571,The Computer and Education,None,Educational Technology,1973/01
9780241209363,The Politics Book,DK,Dorling Kindersley Ltd,2015/03/02
9781465441072,The Politics Book,DK,Penguin,2015/03/02
9780745698502,What is Politics,Adrian Leftwich,John Wiley Sons,2015/03/31
9781782399742,Why We Get the Wrong Politicians,Isabel Hardman,Atlantic Books,2018/09/06
9781448217878,Women of Westminster,Rachel Reeves,Bloomsbury Publishing,2020/03/05
9780192559494,Future Politics,Jamie Susskind,Oxford University Press,2018/09/04
9780745652481,Celebrity Politics,Mark Wheeler,Polity,2013/08/05
9781907994555,A Better Politics,Danny Dorling,London Publishing Partnership,2016/03/20
9780674024885,Political Conduct,Fellow and Tutor in Politics Mark Philp Mark Philp,Harvard University Press,2007
9780393652253,Super Pumped The Battle for Uber,Mike Isaac,W W Norton Company,2019/09/03
9781780673059,The Super Book for Super Heroes,None,Laurence King Publishing,2013/10/22
9780878056941,Super Heroes,Richard Reynolds,Univ Press Of Mississippi,1994
9781451418040,Super Natural Christians,Sallie McFague,Fortress Press,None
9781427023117,Little Men,Louisa May Alcott,Readhowyouwantcom,2009/03/19
9780750658379,Marketing and Selling Super Series,Institute of Leadership Management,Routledge,2002/10
9781448866762,Shapes and Symmetry,Thomas Canavan,The Rosen Publishing Group Inc,2011/12/15
9780387259086,Motion Free Super Resolution,Joshi Manjunath Subhasis Chaudhuri,Springer Science Business Media,2006/06/20
9780553384734,Super Crunchers,Ian Ayres,Bantam,2008
9780977790845,Superheroes,Angela Ndalianis C J Mackie Wendy Haslem,New Academia Publishing LLC,2007
9781408897317,Harry Potter The Illustrated Collection,J K Rowling,Bloomsbury Publishing,2017/11/16
9781548602659,Harry Potter Coloring Book,Scholastic,Createspace Independent Publishing Platform,2017/07/05
9783527344321,Handbook of In Vivo Chemistry in Mice,Katsunori Tanaka Kenward Vong,John Wiley Sons,2020/02/25
9781789460292,Harry,Angela Levin,None,2019/05
9781682224281,Asdasd,sadsadsa Sadsad,None,2015/10/19
9781682224304,Test,asdsadasd asdasd,None,2015/10/19
9781603427692,Reclaiming Our Food,Tanya Denckla Cobb,Storey Publishing,2011/10/21
9788757125405,Breaking Through to the Other Side,Thomas Visby Snitker,Nyt Teknisk Forlag,2004
9788497633864,Entre las sombras,Enrique Hernandez Montano Mancebo,Ediciones Nowtilus Sl,2010/01/01
9781682224328,Asdasdas,asdasdas asdasd,None,2015/10/19
9781473619777,The Long Way to a Small Angry Planet,Becky Chambers,Hachette Uk,2015/03/16
9787810821551,Visual Basic Cheng Xu She Ji Ji Shi Xun Jiao Cheng 21Shi Ji Gao Zhi Gao Zhuan Gui Hua Jiao Cai Ji Suan Ji Xi Lie ,Li Lan You ,Qing Hua Da Xue Chu Ban She You Xian Gong Si ,2003
9781449718602,Flesh Satan or God,Kathy DeGraw,Westbow Press,2011/06/15
9780343565343,Vertebrate Paleontology,Willard Rouse Jillson,Franklin Classics,2018/10/16
9781711283968,Alexandra,Noteworthy Publications,None,2019/11/24
9781790613113,Bible Verses Journal,Miau DESIGN,None,2018/12
9780763780470,Epidemiology of Chronic Disease,Randall E Harris,Jones Bartlett Publishers,2013
9781090701022,Keep Calm and Let Benedikt Handle It,Pytkers Notebooks,None,2019/03/16
9781351721271,Feature Engineering for Machine Learning and Data Analytics,Guozhu Dong Huan Liu,Crc Press,2018/03/14
9781523480890,Harry Potter,British,Createspace Independent Publishing Platform,2016/01/18
9780470627358,The Ultimate Harry Potter and Philosophy,Gregory Bassham William Irwin,John Wiley Sons,2010/08/13
9781910085073,Pet Mice Your Pet Mouse Happy Care Guide,Ben Little,None,2014/02/03
9780544183056,CliffsNotes on Steinbecks Of Mice and Men,Susan Van Kirk,Houghton Mifflin Harcourt,2011/05/18
9781571431592,The Digested Read,John Crace,Rdr Books,2005/12
9781999819118,Of Mice and Men and Zombies,Ryan Colley,Ryan Colley,2018/04/16
9780008278595,Zenith,Lindsay Cummings Sasha Alsberg,None,2018
9781781083451,Zenith Phase Four,Grant Morrison Steve Yeowell,None,2015/07
9781897126158,At the Zenith of the Empire,Stewart Lemoine,Newest Press,2007
9780790612164,Servicing Zenith Televisions,Bob Rose,Prompt,2000
9789401445658,The Day after Tomorrow,Peter Hinssen,Lannoo Meulenhoff Belgium,2017/06/21
9780575101807,The Day After Tomorrow,Whitley Strieber,Hachette Uk,2010/11/11
9780446549899,The Day After Tomorrow,Allan Folsom,Hachette Uk,2008/11/15
9780674022324,Philosophy the Day After Tomorrow,Stanley Cavell,Harvard University Press,2006
9789401445467,Customers the day after tomorrow,Steven Van Belleghem,Lannoo Meulenhoff Belgium,2017/11/29
9780860701330,Day After Tomorrow,Bahadur Tejani,Bahadur Tejani,1971
9781576875605,The Day After Tomorrow,J Henry Fair,Powerhouse Books,2010
9781532660214,Towards the Day after Tomorrow,P H Brazier,Wipf And Stock Publishers,2020/02/17
9780439513203,Scooby Doo Storybook Collection,Gail Herman Jesse Leon McCann Scholastic Inc,Scholastic Paperbacks,2002
9781782021520,Scooby Doo and the Sunken Ship,James Gelsey,None,2014/09/25
9780439814171,Scooby Doo and the Monster Menace,James Gelsey,Scholastic Paperbacks,2006
9781496565822,Scooby Doo Encyclopedia,Benjamin Bird,Capstone,2018/10
9781524788261,What Is the Story of Scooby Doo,M D Payne Who HQ,Penguin,2019/04/16
9781684461479,The Scooby Doo Cookbook,Katrina Jorgensen,Capstone Editions,2020
9781570361807,Scooby Doo,Eric Binder Ronald Kidd Vaccaro Associates,Andrews Mcmeel Pub,1995/05/01
9781515725909,Scooby Doo a Science of Forces and Motion Mystery,Megan Cooley Peterson,Capstone,2016
9781434297785,You Choose Stories Scooby Doo The Secret of the Sea Creature,Laurie S Sutton,Capstone,2014/02/01
9780439284868,Scooby Doo and the Vicious Viking,James Gelsey,Scholastic Paperbacks,2002
9780007488308,The Fellowship of the Ring,John Ronald Reuel Tolkien,Harpercollins Publishers,2012
9780547951942,The Lord of the Rings,JRR Tolkien,Houghton Mifflin Harcourt,2012/02/15
9780786484737,Picturing Tolkien,Janice M Bogstad Philip E Kaveny,Mcfarland,2011/09/07
9789042016828,From Hobbits to Hollywood,Ernest Mathijs Murray Pomerance,Rodopi,2006/01/01
9780007488377,The Lord of the Rings,J R R Tolkien,Harpercollins Publishers,2012/08
9780618002252,The Lord of the Rings,None,None,1974
9781904764823,The Lord of the Rings,Ernest Mathijs,Wallflower Press,2006
9780820463964,Watching the Lord of the Rings,Ernest Mathijs Martin Barker,Peter Lang,2008
9780547952017,The Fellowship of the Ring,JRR Tolkien,Houghton Mifflin Harcourt,2012/02/15
9781438113999,The Lord of the Rings,Harold Bloom,Infobase Publishing,2008
9781787414679,The Lion King,Frankie Jones,None,2019/04/26
9780736439718,I Am Simba Disney The Lion King,John Sazaklis,Goldendisney,2019/07/02
9780307127921,Disneys the lion king,Margo Hover,Golden Books,1994/05
9781368044134,The Lion King Live Action Novelization,Elizabeth Rudnick,Disney Electronic Content,2019/06/04
9780736401234,The Lion King,Liza Baker,Rhdisney,1999
9781788109949,DBW THE LION KING,None,Storytime Collection Disney,2018/05
9781760669010,The Lion King,Scholastic Australia,None,2019/07
9780786830053,The Lion King,None,Random House Disney,1994
9781484788561,The Lion King,Julie Taymor,Disney Editions,2017/11/07
9781913072384,The Lion King The Book of the Film,None,None,2019/06/27
9780321241580,Macromedia Studio MX 2004,Jeffrey Bardzell Shaowen Bardzell,Macromedia Press,2004
9781522502494,Advancing Pharmaceutical Processes and Tools for Improved Health Outcomes,Gasmelseid Tagelsir Mohamed,Igi Global,2016/04/19
9789878702728,A la vuelta de la esquina,Milo A Russo,Editorial Autores De Argentina,2020/03/06
9780309376884,Mental Disorders and Disabilities Among Low Income Children,Board on Children Youth and Families Board on the Health of Select Populations Committee to Evaluate the Supplemental Security Income Disability Program for Children with Mental Disorders Institute of Medicine National Academies of Sciences Engineering and Medicine,National Academies Press,2015/10/28
9780473450281,The Friday Poem,Steve Braunias,None,2018/11/19
9781838577919,Peter Pan,J M Barrie,Arcturus Publishing,2019/09/12
9780192792846,Peter Pan in Scarlet,Geraldine McCaughrean,Oxford University Press Children,2010/10/07
9781427065506,Peter Pan,J M Barrie,Readhowyouwantcom,2008/11/28
9781853261206,Peter Pan,James Matthew Barrie,Wordsworth Editions,1993
9780822213451,Peter Pan Or The Boy who Would Not Grow Up,James Matthew Barrie John Caird Trevor Nunn,Dramatists Play Service Inc,1993
9780736412957,Peter Pan,Random House Disney,Disney Books For Young Readers,2002
9780681414266,Peter Pan,None,None,1991
9783849629106,Peter Pan Peter and Wendy,James M Barrie,Jazzybee Verlag,2013/10/15
9781474703895,Peter Pan,B A Hoena,Raintree,2015/09/10